(declare-const y0 Real)
(declare-const y1 Real)
(declare-const y2 Real)
(assert (= (= (< y2 y2) true) (< y0 (+ 87 y1))))
(assert (< 55 (+ 40 47)))
(assert true)
(assert (= (+ y1 y0) y1))
(assert (< 40 y2))
(assert (< y2 y1))
(assert (= (+ 33 y2) 8))
(assert (= (< y1 41) (< y1 (+ y1 (+ y2 y0)))))
(assert true)
(check-sat)
